50
10715

483 267
559 492
556 903
656 994
404 518
318 692
530 191
254 444
784 440
431 336
180 288
357 95
883 57
794 544
35 584
37 472
266 111
984 503
737 463
797 52
93 143
951 407
668 881
483 578
570 133
860 660
6 72
336 264
379 395
173 201
193 774
796 425
924 620
429 523
373 78
149 98
712 230
204 54
71 21
669 21
399 995
218 623
304 495
914 687
486 643
356 940
39 977
452 297
857 324
465 828
